<?xml version = "1.0" encoding="UTF-8" standalone="yes"?>
<CPLEXSolution version="1.2">
 <header
   problemName="IloCplex"
   solutionName="p0"
   solutionIndex="-1"
   objectiveValue="0"
   solutionTypeValue="3"
   solutionTypeString="primal"
   solutionStatusValue="127"
   solutionStatusString="integer feasible solution"
   solutionMethodString="mip"
   primalFeasible="0"
   dualFeasible="0"
   writeLevel="3"/>
 <quality
   epInt="1.0000000000000001e-05"
   epRHS="9.9999999999999995e-07"
   maxIntInfeas="0"
   maxPrimalInfeas="0"
   maxX="1"
   maxSlack="130"/>
 <variables>
  <variable index="71" value="1"/>
  <variable index="155" value="1"/>
  <variable index="269" value="1"/>
  <variable index="401" value="1"/>
  <variable index="590" value="1"/>
  <variable index="719" value="1"/>
  <variable index="792" value="1"/>
  <variable index="929" value="1"/>
  <variable index="1043" value="1"/>
  <variable index="1163" value="1"/>
  <variable index="1364" value="1"/>
  <variable index="1493" value="1"/>
  <variable index="1574" value="1"/>
  <variable index="1719" value="1"/>
  <variable index="1812" value="1"/>
  <variable index="1977" value="1"/>
  <variable index="2076" value="1"/>
  <variable index="2211" value="1"/>
  <variable index="2316" value="1"/>
  <variable index="2469" value="1"/>
  <variable index="2592" value="1"/>
  <variable index="2703" value="1"/>
  <variable index="2846" value="1"/>
  <variable index="2988" value="1"/>
  <variable index="3098" value="1"/>
  <variable index="3239" value="1"/>
  <variable index="3362" value="1"/>
  <variable index="3492" value="1"/>
  <variable index="3606" value="1"/>
  <variable index="3735" value="1"/>
  <variable index="3944" value="1"/>
  <variable index="3993" value="1"/>
  <variable index="4202" value="1"/>
  <variable index="4283" value="1"/>
  <variable index="4412" value="1"/>
  <variable index="4533" value="1"/>
  <variable index="4662" value="1"/>
  <variable index="4799" value="1"/>
  <variable index="4910" value="1"/>
  <variable index="5057" value="1"/>
  <variable index="5216" value="1"/>
  <variable index="5312" value="1"/>
  <variable index="5479" value="1"/>
  <variable index="5555" value="1"/>
  <variable index="5682" value="1"/>
  <variable index="5807" value="1"/>
  <variable index="5936" value="1"/>
  <variable index="6137" value="1"/>
  <variable index="6186" value="1"/>
  <variable index="6315" value="1"/>
  <variable index="6524" value="1"/>
  <variable index="6653" value="1"/>
  <variable index="6714" value="1"/>
  <variable index="6846" value="1"/>
  <variable index="7040" value="1"/>
  <variable index="7101" value="1"/>
  <variable index="7236" value="1"/>
  <variable index="7362" value="1"/>
  <variable index="7556" value="1"/>
  <variable index="7625" value="1"/>
  <variable index="7752" value="1"/>
  <variable index="7878" value="1"/>
  <variable index="8019" value="1"/>
  <variable index="8133" value="1"/>
  <variable index="8268" value="1"/>
  <variable index="8397" value="1"/>
  <variable index="8500" value="1"/>
  <variable index="8669" value="1"/>
  <variable index="8714" value="1"/>
  <variable index="8913" value="1"/>
  <variable index="8976" value="1"/>
  <variable index="9168" value="1"/>
  <variable index="9234" value="1"/>
  <variable index="9459" value="1"/>
  <variable index="9588" value="1"/>
  <variable index="9621" value="1"/>
  <variable index="9815" value="1"/>
  <variable index="9945" value="1"/>
  <variable index="10104" value="1"/>
  <variable index="10209" value="1"/>
  <variable index="10314" value="1"/>
  <variable index="10467" value="1"/>
  <variable index="10596" value="1"/>
  <variable index="10760" value="1"/>
  <variable index="10842" value="1"/>
  <variable index="10989" value="1"/>
  <variable index="11135" value="1"/>
  <variable index="11150" value="1"/>
  <variable index="11386" value="1"/>
  <variable index="11490" value="1"/>
  <variable index="11576" value="1"/>
  <variable index="11753" value="1"/>
  <variable index="11870" value="1"/>
  <variable index="12006" value="1"/>
  <variable index="12072" value="1"/>
  <variable index="12201" value="1"/>
  <variable index="12337" value="1"/>
  <variable index="12491" value="1"/>
  <variable index="12656" value="1"/>
  <variable index="12717" value="1"/>
  <variable index="12926" value="1"/>
  <variable index="13038" value="1"/>
  <variable index="13169" value="1"/>
  <variable index="13319" value="1"/>
  <variable index="13394" value="1"/>
  <variable index="13547" value="1"/>
  <variable index="13676" value="1"/>
  <variable index="13727" value="1"/>
  <variable index="13910" value="1"/>
  <variable index="14063" value="1"/>
  <variable index="14168" value="1"/>
  <variable index="14327" value="1"/>
  <variable index="14459" value="1"/>
  <variable index="14555" value="1"/>
  <variable index="14684" value="1"/>
  <variable index="14853" value="1"/>
  <variable index="14965" value="1"/>
  <variable index="15071" value="1"/>
  <variable index="15233" value="1"/>
  <variable index="15369" value="1"/>
  <variable index="15474" value="1"/>
  <variable index="15555" value="1"/>
  <variable index="15746" value="1"/>
  <variable index="15845" value="1"/>
  <variable index="15990" value="1"/>
  <variable index="16131" value="1"/>
  <variable index="16262" value="1"/>
  <variable index="16285" value="1"/>
  <variable index="16395" value="1"/>
  <variable index="16396" value="1"/>
  <variable index="16397" value="1"/>
  <variable index="16398" value="1"/>
  <variable index="16399" value="1"/>
 </variables>
</CPLEXSolution>
